20
715
212
false
0.25
26 19 41 44 31 25 50 34 45 23 21 45 7 1 47 26 9 32 8 4
29 96 21 50 76 36 0 99 80 94 57 55 77 3 78 42 60 83 83 7
0 0 0 0 0 0 0 0 64 0 9 0 0 0 19 0 0 52 77 71
0 0 0 69 0 16 0 0 0 40 0 50 88 0 0 0 0 0 0
0 22 45 63 0 0 0 0 0 0 0 0 33 0 0 0 0 39
0 43 28 0 0 44 37 0 3 0 23 0 1 0 0 0 71
0 0 0 40 20 0 0 0 0 99 0 0 0 0 0 0
0 0 0 13 0 0 0 0 91 0 35 0 0 0 1
0 0 0 74 0 0 0 0 0 0 0 0 0 68
0 48 89 0 0 0 0 0 0 0 0 15 0
0 0 82 0 0 0 0 0 0 76 0 0
0 0 0 0 0 27 0 0 59 0 0
0 98 84 0 0 34 0 0 0 0
0 0 0 0 0 0 0 27 0
0 0 0 0 83 11 0 0
0 43 0 0 0 0 0
0 0 0 0 0 0
0 0 59 63 0
0 0 0 0
0 49 0
0 0
0 89 0 0 0 0 0 92 0 0 20 0 28 0 0 0 15 0 0
0 0 0 0 0 0 0 0 7 74 7 0 0 0 0 0 0 99
0 65 0 0 0 0 0 0 0 0 0 0 0 0 0 0 0
0 0 0 0 0 0 0 0 5 0 0 0 0 0 33 0
0 0 0 0 0 0 89 0 0 0 0 0 0 0 0
0 0 0 47 0 0 0 0 0 0 0 0 0 38
0 0 7 72 58 0 0 86 0 0 0 0 95
0 0 0 0 0 0 0 73 0 46 0 0
0 21 0 0 0 0 0 0 31 0 0
0 0 66 0 0 0 0 0 0 0
0 0 0 0 55 0 0 0 0
0 98 69 0 0 0 0 0
0 0 0 0 0 66 0
0 63 0 0 0 0
0 35 0 0 0
0 0 0 0
0 0 28
0 0
0
0 0 0 49 73 97 0 0 0 0 0 0 0 0 0 0 66 0
0 0 0 0 1 0 0 62 0 0 0 74 0 0 0 0 0
0 0 0 0 68 0 0 0 0 0 0 0 56 0 62 0
0 0 0 0 71 0 0 0 0 47 0 0 40 0 0
0 0 0 0 45 0 0 0 0 0 0 0 84 53
0 0 96 0 6 0 43 0 0 29 0 0 0
0 32 0 0 0 6 46 38 0 0 0 0
0 37 0 0 0 90 0 0 0 0 0
0 0 0 0 0 78 42 0 0 0
0 71 0 0 0 25 0 7 0
0 0 0 0 87 0 0 91
0 0 0 0 0 0 91
0 91 47 0 27 20
0 0 91 74 0
0 0 4 16
0 0 0
0 0
0
0 30 0 0 0 0 83 0 0 0 0 0 0 0 0 22 0
0 77 0 0 0 36 0 0 0 0 0 5 83 0 25 0
0 41 0 72 0 0 0 0 0 0 19 0 0 14 0
0 0 0 0 0 0 0 0 0 0 0 0 12 0
0 0 0 0 0 0 0 0 0 38 0 0 0
0 0 0 20 0 0 0 0 40 0 0 0
0 0 0 32 0 47 16 0 0 0 0
0 0 0 0 0 83 0 0 0 57
0 0 0 0 0 62 0 75 0
0 0 0 83 0 0 0 12
0 0 0 0 0 0 0
0 0 84 0 94 58
0 0 62 58 0
0 18 0 0
0 100 0
0 0
0
0 40 0 0 0 100 0 2 2 29 0 0 26 0 0 0
0 0 0 0 0 0 85 0 0 0 0 98 77 0 0
0 30 0 0 57 0 0 0 0 19 0 0 0 0
0 15 0 0 0 0 0 0 0 0 0 11 0
0 0 13 0 0 55 0 0 0 3 0 37
0 0 0 0 0 0 0 0 0 0 0
0 40 0 0 0 0 0 0 0 0
0 0 0 0 0 0 1 0 0
0 100 61 0 0 0 0 0
0 0 53 0 0 0 23
0 0 0 0 0 96
0 0 0 0 0
0 0 0 0
0 0 0
0 0
0
0 0 0 0 0 0 91 0 0 0 0 85 0 0 0
0 0 90 0 15 0 0 0 0 0 0 0 0 0
0 46 0 0 0 0 0 69 0 64 0 0 0
0 86 63 0 0 0 55 54 0 0 0 0
0 0 0 0 0 0 61 0 0 0 0
0 0 0 0 0 25 0 0 0 0
0 17 0 0 0 28 0 0 0
0 0 0 0 0 0 0 0
0 0 32 0 0 0 0
0 0 0 0 0 52
0 0 57 0 0
0 6 0 0
0 88 0
0 29
0
0 0 18 0 0 0 8 0 0 0 0 0 0 72
0 67 0 0 0 0 0 0 0 0 0 0 21
0 0 0 73 0 0 0 0 0 0 0 80
0 42 0 0 89 57 0 0 29 2 0
0 0 0 0 0 10 0 0 81 0
0 0 0 61 61 84 2 0 0
0 0 0 0 71 0 0 57
0 0 0 0 0 0 37
0 0 0 0 0 82
0 0 20 0 0
0 0 0 45
0 98 0
0 0
0
0 0 0 0 0 0 0 0 0 30 0 0 0
0 48 0 0 0 0 36 9 81 0 12 73
0 48 48 0 0 0 0 0 0 0 0
0 34 0 0 88 0 80 0 0 88
0 0 0 86 54 0 0 0 0
0 68 0 0 0 55 92 71
0 0 0 0 0 0 0
0 0 4 0 0 0
0 0 0 0 0
0 0 0 0
0 52 20
0 0
0
0 71 0 0 0 0 0 13 81 0 0 0
0 0 0 0 0 0 0 42 32 84 0
0 0 0 0 0 52 40 0 0 0
0 0 0 0 0 68 0 0 0
0 0 77 39 0 0 0 0
0 0 0 0 58 62 63
0 0 0 0 62 0
0 0 0 0 0
0 26 0 5
0 0 0
0 0
0
0 0 0 0 0 0 0 10 0 0 31
0 0 0 0 0 0 0 0 0 89
0 0 0 0 52 0 0 0 0
0 0 0 0 0 0 91 0
0 0 0 0 0 81 57
0 0 0 0 0 0
0 0 0 0 0
0 0 89 0
0 78 0
0 0
0
0 0 0 0 0 0 36 66 0 0
0 98 0 0 0 0 0 0 63
0 0 0 0 0 0 0 0
0 0 0 0 0 9 60
0 0 65 0 0 0
0 45 0 0 0
0 0 0 0
0 62 0
0 0
0
0 0 0 0 0 0 46 0 0
0 0 1 6 13 56 11 0
0 0 0 0 0 69 0
0 24 0 0 0 0
0 0 0 76 11
0 0 77 83
0 0 25
0 0
0
0 0 0 0 0 84 0 0
0 30 0 0 0 32 0
0 0 0 0 0 90
0 0 0 0 87
0 92 0 0
0 0 0
0 0
0
0 0 0 0 0 0 0
0 0 0 48 0 42
0 0 0 0 67
0 9 0 80
0 0 86
0 6
0
0 0 0 40 0 15
0 0 0 0 0
0 0 0 0
0 0 0
0 37
0
0 0 0 0 0
0 0 72 0
0 0 0
0 62
0
0 0 0 0
0 0 0
0 25
0
0 0 29
0 0
0
0 0
0
0
1998 2836 2342 1732 2249 2529 2037 2147 2717 2410 2439 2254 2342 1778 2518 2110 2473 2165 2687 2911
76.84615384615384 149.26315789473685 57.1219512195122 39.36363636363637 72.54838709677419 101.16 40.74 63.14705882352941 60.37777777777778 104.78260869565217 116.14285714285714 50.08888888888889 334.57142857142856 1778.0 53.57446808510638 81.15384615384616 274.77777777777777 67.65625 335.875 727.75
